N = 7;
H = 5;
T = 2;

avail = array3d(1..N, 1..H, 1..T, [1, 0, 3, 9, 3, 7, 8, 6, 1, 7, 1, 6, 2, 0, 6, 7, 1, 0, 3, 4, 10, 4, 4, 2, 2, 1, 1, 5, 7, 1, 6, 0, 7, 5, 3, 6, 7, 10, 5, 8, 3, 5, 5, 0, 8, 6, 3, 0, 5, 9, 3, 4, 4, 7, 6, 2, 8, 10, 9, 10, 8, 0, 9, 10, 10, 9, 7, 9, 3, 10]);

r = array2d(1..H, 1..T, [2, 2, 2, 1, 2, 1, 2, 1, 3, 2]);
